SYSTEM  = dos
ISTART = 1
ICHARG = 11
PREC = Accurate
LREAL = Auto
ISPIN = 2
IBRION = -1
ISIF = 2
NSW = 0
POTIM = 0.1
EDIFFG = -2E-02
ENCUT = 420 eV
NELM = 200
EDIFF = 1E-06
LCHARG = .T.
LWAVE = .T.
ISMEAR = 1
SIGMA = 0.1
ALGO = Fast

NPAR = 4

LORBIT = 11
NEDOS = 1000

