Fcc_3x3x3_a3.52_1S                      
   1.00000000000000     
    10.5728271755170020    0.0000000000000000    0.0000000000000000
     0.0000000000000000   10.5728271755170020    0.0000000000000000
     0.0000000000000000    0.0000000000000000   10.5728271755170020
   Re   Ni
     1   107
Direct
  0.0000000000000000  0.0000000000000000  0.0000000000000000
  0.0000000000000000  0.1673481012905000  0.1673481012905000
  0.1673481012905000  0.0000000000000000  0.1673481012905000
  0.1673481012905000  0.1673481012905000  0.0000000000000000
  0.3349322204527851  0.0000000000000000  0.0000000000000000
  0.3337323704185948  0.1669488173419538  0.1669488173419538
  0.5000000000000000  0.0000000000000000  0.1670336869270486
  0.5000000000000000  0.1670336869270486  0.0000000000000000
  0.6650678015472167  0.0000000000000000  0.0000000000000000
  0.6662676515814070  0.1669488173419538  0.1669488173419538
  0.8326518647094971  0.0000000000000000  0.1673481012905000
  0.8326518647094971  0.1673481012905000  0.0000000000000000
  0.0000000000000000  0.3349322204527851  0.0000000000000000
  0.0000000000000000  0.5000000000000000  0.1670336869270486
  0.1669488173419538  0.3337323704185948  0.1669488173419538
  0.1670336869270486  0.5000000000000000  0.0000000000000000
  0.3345230128556267  0.3345230128556267  0.0000000000000000
  0.3333877580948652  0.5000000000000000  0.1668437278541859
  0.5000000000000000  0.3333877580948652  0.1668437278541859
  0.5000000000000000  0.5000000000000000  0.0000000000000000
  0.6654770091443751  0.3345230128556267  0.0000000000000000
  0.6666122639051366  0.5000000000000000  0.1668437278541859
  0.8330511486580434  0.3337323704185948  0.1669488173419538
  0.8329662790729486  0.5000000000000000  0.0000000000000000
  0.0000000000000000  0.6650678015472167  0.0000000000000000
  0.0000000000000000  0.8326518647094971  0.1673481012905000
  0.1669488173419538  0.6662676515814070  0.1669488173419538
  0.1673481012905000  0.8326518647094971  0.0000000000000000
  0.3345230128556267  0.6654770091443751  0.0000000000000000
  0.3337323704185948  0.8330511486580434  0.1669488173419538
  0.5000000000000000  0.6666122639051366  0.1668437278541859
  0.5000000000000000  0.8329662790729486  0.0000000000000000
  0.6654770091443751  0.6654770091443751  0.0000000000000000
  0.6662676515814070  0.8330511486580434  0.1669488173419538
  0.8330511486580434  0.6662676515814070  0.1669488173419538
  0.8326518647094971  0.8326518647094971  0.0000000000000000
  0.0000000000000000  0.0000000000000000  0.3349322204527851
  0.0000000000000000  0.1670336869270486  0.5000000000000000
  0.1670336869270486  0.0000000000000000  0.5000000000000000
  0.1669488173419538  0.1669488173419538  0.3337323704185948
  0.3345230128556267  0.0000000000000000  0.3345230128556267
  0.3333877580948652  0.1668437278541859  0.5000000000000000
  0.5000000000000000  0.0000000000000000  0.5000000000000000
  0.5000000000000000  0.1668437278541859  0.3333877580948652
  0.6654770091443751  0.0000000000000000  0.3345230128556267
  0.6666122639051366  0.1668437278541859  0.5000000000000000
  0.8329662790729486  0.0000000000000000  0.5000000000000000
  0.8330511486580434  0.1669488173419538  0.3337323704185948
  0.0000000000000000  0.3345230128556267  0.3345230128556267
  0.0000000000000000  0.5000000000000000  0.5000000000000000
  0.1668437278541859  0.3333877580948652  0.5000000000000000
  0.1668437278541859  0.5000000000000000  0.3333877580948652
  0.3334365894338305  0.3334365894338305  0.3334365894338305
  0.3333457191993148  0.5000000000000000  0.5000000000000000
  0.5000000000000000  0.3333457191993148  0.5000000000000000
  0.5000000000000000  0.5000000000000000  0.3333457191993148
  0.6665634325661713  0.3334365894338305  0.3334365894338305
  0.6666543028006870  0.5000000000000000  0.5000000000000000
  0.8331562381458113  0.3333877580948652  0.5000000000000000
  0.8331562381458113  0.5000000000000000  0.3333877580948652
  0.0000000000000000  0.6654770091443751  0.3345230128556267
  0.0000000000000000  0.8329662790729486  0.5000000000000000
  0.1668437278541859  0.6666122639051366  0.5000000000000000
  0.1669488173419538  0.8330511486580434  0.3337323704185948
  0.3334365894338305  0.6665634325661713  0.3334365894338305
  0.3333877580948652  0.8331562381458113  0.5000000000000000
  0.5000000000000000  0.6666543028006870  0.5000000000000000
  0.5000000000000000  0.8331562381458113  0.3333877580948652
  0.6665634325661713  0.6665634325661713  0.3334365894338305
  0.6666122639051366  0.8331562381458113  0.5000000000000000
  0.8331562381458113  0.6666122639051366  0.5000000000000000
  0.8330511486580434  0.8330511486580434  0.3337323704185948
  0.0000000000000000  0.0000000000000000  0.6650678015472167
  0.0000000000000000  0.1673481012905000  0.8326518647094971
  0.1673481012905000  0.0000000000000000  0.8326518647094971
  0.1669488173419538  0.1669488173419538  0.6662676515814070
  0.3345230128556267  0.0000000000000000  0.6654770091443751
  0.3337323704185948  0.1669488173419538  0.8330511486580434
  0.5000000000000000  0.0000000000000000  0.8329662790729486
  0.5000000000000000  0.1668437278541859  0.6666122639051366
  0.6654770091443751  0.0000000000000000  0.6654770091443751
  0.6662676515814070  0.1669488173419538  0.8330511486580434
  0.8326518647094971  0.0000000000000000  0.8326518647094971
  0.8330511486580434  0.1669488173419538  0.6662676515814070
  0.0000000000000000  0.3345230128556267  0.6654770091443751
  0.0000000000000000  0.5000000000000000  0.8329662790729486
  0.1669488173419538  0.3337323704185948  0.8330511486580434
  0.1668437278541859  0.5000000000000000  0.6666122639051366
  0.3334365894338305  0.3334365894338305  0.6665634325661713
  0.3333877580948652  0.5000000000000000  0.8331562381458113
  0.5000000000000000  0.3333877580948652  0.8331562381458113
  0.5000000000000000  0.5000000000000000  0.6666543028006870
  0.6665634325661713  0.3334365894338305  0.6665634325661713
  0.6666122639051366  0.5000000000000000  0.8331562381458113
  0.8330511486580434  0.3337323704185948  0.8330511486580434
  0.8331562381458113  0.5000000000000000  0.6666122639051366
  0.0000000000000000  0.6654770091443751  0.6654770091443751
  0.0000000000000000  0.8326518647094971  0.8326518647094971
  0.1669488173419538  0.6662676515814070  0.8330511486580434
  0.1669488173419538  0.8330511486580434  0.6662676515814070
  0.3334365894338305  0.6665634325661713  0.6665634325661713
  0.3337323704185948  0.8330511486580434  0.8330511486580434
  0.5000000000000000  0.6666122639051366  0.8331562381458113
  0.5000000000000000  0.8331562381458113  0.6666122639051366
  0.6665634325661713  0.6665634325661713  0.6665634325661713
  0.6662676515814070  0.8330511486580434  0.8330511486580434
  0.8330511486580434  0.6662676515814070  0.8330511486580434
  0.8330511486580434  0.8330511486580434  0.6662676515814070
 
  0.00000000E+00  0.00000000E+00  0.00000000E+00
  0.00000000E+00  0.00000000E+00  0.00000000E+00
  0.00000000E+00  0.00000000E+00  0.00000000E+00
  0.00000000E+00  0.00000000E+00  0.00000000E+00
  0.00000000E+00  0.00000000E+00  0.00000000E+00
  0.00000000E+00  0.00000000E+00  0.00000000E+00
  0.00000000E+00  0.00000000E+00  0.00000000E+00
  0.00000000E+00  0.00000000E+00  0.00000000E+00
  0.00000000E+00  0.00000000E+00  0.00000000E+00
  0.00000000E+00  0.00000000E+00  0.00000000E+00
  0.00000000E+00  0.00000000E+00  0.00000000E+00
  0.00000000E+00  0.00000000E+00  0.00000000E+00
  0.00000000E+00  0.00000000E+00  0.00000000E+00
  0.00000000E+00  0.00000000E+00  0.00000000E+00
  0.00000000E+00  0.00000000E+00  0.00000000E+00
  0.00000000E+00  0.00000000E+00  0.00000000E+00
  0.00000000E+00  0.00000000E+00  0.00000000E+00
  0.00000000E+00  0.00000000E+00  0.00000000E+00
  0.00000000E+00  0.00000000E+00  0.00000000E+00
  0.00000000E+00  0.00000000E+00  0.00000000E+00
  0.00000000E+00  0.00000000E+00  0.00000000E+00
  0.00000000E+00  0.00000000E+00  0.00000000E+00
  0.00000000E+00  0.00000000E+00  0.00000000E+00
  0.00000000E+00  0.00000000E+00  0.00000000E+00
  0.00000000E+00  0.00000000E+00  0.00000000E+00
  0.00000000E+00  0.00000000E+00  0.00000000E+00
  0.00000000E+00  0.00000000E+00  0.00000000E+00
  0.00000000E+00  0.00000000E+00  0.00000000E+00
  0.00000000E+00  0.00000000E+00  0.00000000E+00
  0.00000000E+00  0.00000000E+00  0.00000000E+00
  0.00000000E+00  0.00000000E+00  0.00000000E+00
  0.00000000E+00  0.00000000E+00  0.00000000E+00
  0.00000000E+00  0.00000000E+00  0.00000000E+00
  0.00000000E+00  0.00000000E+00  0.00000000E+00
  0.00000000E+00  0.00000000E+00  0.00000000E+00
  0.00000000E+00  0.00000000E+00  0.00000000E+00
  0.00000000E+00  0.00000000E+00  0.00000000E+00
  0.00000000E+00  0.00000000E+00  0.00000000E+00
  0.00000000E+00  0.00000000E+00  0.00000000E+00
  0.00000000E+00  0.00000000E+00  0.00000000E+00
  0.00000000E+00  0.00000000E+00  0.00000000E+00
  0.00000000E+00  0.00000000E+00  0.00000000E+00
  0.00000000E+00  0.00000000E+00  0.00000000E+00
  0.00000000E+00  0.00000000E+00  0.00000000E+00
  0.00000000E+00  0.00000000E+00  0.00000000E+00
  0.00000000E+00  0.00000000E+00  0.00000000E+00
  0.00000000E+00  0.00000000E+00  0.00000000E+00
  0.00000000E+00  0.00000000E+00  0.00000000E+00
  0.00000000E+00  0.00000000E+00  0.00000000E+00
  0.00000000E+00  0.00000000E+00  0.00000000E+00
  0.00000000E+00  0.00000000E+00  0.00000000E+00
  0.00000000E+00  0.00000000E+00  0.00000000E+00
  0.00000000E+00  0.00000000E+00  0.00000000E+00
  0.00000000E+00  0.00000000E+00  0.00000000E+00
  0.00000000E+00  0.00000000E+00  0.00000000E+00
  0.00000000E+00  0.00000000E+00  0.00000000E+00
  0.00000000E+00  0.00000000E+00  0.00000000E+00
  0.00000000E+00  0.00000000E+00  0.00000000E+00
  0.00000000E+00  0.00000000E+00  0.00000000E+00
  0.00000000E+00  0.00000000E+00  0.00000000E+00
  0.00000000E+00  0.00000000E+00  0.00000000E+00
  0.00000000E+00  0.00000000E+00  0.00000000E+00
  0.00000000E+00  0.00000000E+00  0.00000000E+00
  0.00000000E+00  0.00000000E+00  0.00000000E+00
  0.00000000E+00  0.00000000E+00  0.00000000E+00
  0.00000000E+00  0.00000000E+00  0.00000000E+00
  0.00000000E+00  0.00000000E+00  0.00000000E+00
  0.00000000E+00  0.00000000E+00  0.00000000E+00
  0.00000000E+00  0.00000000E+00  0.00000000E+00
  0.00000000E+00  0.00000000E+00  0.00000000E+00
  0.00000000E+00  0.00000000E+00  0.00000000E+00
  0.00000000E+00  0.00000000E+00  0.00000000E+00
  0.00000000E+00  0.00000000E+00  0.00000000E+00
  0.00000000E+00  0.00000000E+00  0.00000000E+00
  0.00000000E+00  0.00000000E+00  0.00000000E+00
  0.00000000E+00  0.00000000E+00  0.00000000E+00
  0.00000000E+00  0.00000000E+00  0.00000000E+00
  0.00000000E+00  0.00000000E+00  0.00000000E+00
  0.00000000E+00  0.00000000E+00  0.00000000E+00
  0.00000000E+00  0.00000000E+00  0.00000000E+00
  0.00000000E+00  0.00000000E+00  0.00000000E+00
  0.00000000E+00  0.00000000E+00  0.00000000E+00
  0.00000000E+00  0.00000000E+00  0.00000000E+00
  0.00000000E+00  0.00000000E+00  0.00000000E+00
  0.00000000E+00  0.00000000E+00  0.00000000E+00
  0.00000000E+00  0.00000000E+00  0.00000000E+00
  0.00000000E+00  0.00000000E+00  0.00000000E+00
  0.00000000E+00  0.00000000E+00  0.00000000E+00
  0.00000000E+00  0.00000000E+00  0.00000000E+00
  0.00000000E+00  0.00000000E+00  0.00000000E+00
  0.00000000E+00  0.00000000E+00  0.00000000E+00
  0.00000000E+00  0.00000000E+00  0.00000000E+00
  0.00000000E+00  0.00000000E+00  0.00000000E+00
  0.00000000E+00  0.00000000E+00  0.00000000E+00
  0.00000000E+00  0.00000000E+00  0.00000000E+00
  0.00000000E+00  0.00000000E+00  0.00000000E+00
  0.00000000E+00  0.00000000E+00  0.00000000E+00
  0.00000000E+00  0.00000000E+00  0.00000000E+00
  0.00000000E+00  0.00000000E+00  0.00000000E+00
  0.00000000E+00  0.00000000E+00  0.00000000E+00
  0.00000000E+00  0.00000000E+00  0.00000000E+00
  0.00000000E+00  0.00000000E+00  0.00000000E+00
  0.00000000E+00  0.00000000E+00  0.00000000E+00
  0.00000000E+00  0.00000000E+00  0.00000000E+00
  0.00000000E+00  0.00000000E+00  0.00000000E+00
  0.00000000E+00  0.00000000E+00  0.00000000E+00
  0.00000000E+00  0.00000000E+00  0.00000000E+00
  0.00000000E+00  0.00000000E+00  0.00000000E+00
