Fcc_3x3x3_a3.52 
1.0 
       10.5600004196         0.0000000000         0.0000000000 
        0.0000000000        10.5600004196         0.0000000000 
        0.0000000000         0.0000000000        10.5600004196 
   Ni 
  108 
Direct 
     0.000000000         0.000000000         0.000000000 
     0.000000000         0.166669989         0.166669989 
     0.166669989         0.000000000         0.166669989 
     0.166669989         0.166669989         0.000000000 
     0.333329999         0.000000000         0.000000000 
     0.333329999         0.166669989         0.166669989 
     0.500000000         0.000000000         0.166669989 
     0.500000000         0.166669989         0.000000000 
     0.666670023         0.000000000         0.000000000 
     0.666670023         0.166669989         0.166669989 
     0.833329977         0.000000000         0.166669989 
     0.833329977         0.166669989         0.000000000 
    -0.000000000         0.333329999         0.000000000 
    -0.000000000         0.500000000         0.166669989 
     0.166669989         0.333329999         0.166669989 
     0.166669989         0.500000000         0.000000000 
     0.333329999         0.333329999         0.000000000 
     0.333329999         0.500000000         0.166669989 
     0.500000000         0.333329999         0.166669989 
     0.500000000         0.500000000         0.000000000 
     0.666670023         0.333329999         0.000000000 
     0.666670023         0.500000000         0.166669989 
     0.833329977         0.333329999         0.166669989 
     0.833329977         0.500000000         0.000000000 
    -0.000000000         0.666670023         0.000000000 
     0.000000000         0.833329977         0.166669989 
     0.166669989         0.666670023         0.166669989 
     0.166669989         0.833329977         0.000000000 
     0.333329999         0.666670023         0.000000000 
     0.333329999         0.833329977         0.166669989 
     0.500000000         0.666670023         0.166669989 
     0.500000000         0.833329977         0.000000000 
     0.666670023         0.666670023         0.000000000 
     0.666670023         0.833329977         0.166669989 
     0.833329977         0.666670023         0.166669989 
     0.833329977         0.833329977         0.000000000 
    -0.000000000        -0.000000000         0.333329999 
    -0.000000000         0.166669989         0.500000000 
     0.166669989        -0.000000000         0.500000000 
     0.166669989         0.166669989         0.333329999 
     0.333329999        -0.000000000         0.333329999 
     0.333329999         0.166669989         0.500000000 
     0.500000000        -0.000000000         0.500000000 
     0.500000000         0.166669989         0.333329999 
     0.666670023        -0.000000000         0.333329999 
     0.666670023         0.166669989         0.500000000 
     0.833329977        -0.000000000         0.500000000 
     0.833329977         0.166669989         0.333329999 
    -0.000000000         0.333329999         0.333329999 
    -0.000000000         0.500000000         0.500000000 
     0.166669989         0.333329999         0.500000000 
     0.166669989         0.500000000         0.333329999 
     0.333329999         0.333329999         0.333329999 
     0.333329999         0.500000000         0.500000000 
     0.500000000         0.333329999         0.500000000 
     0.500000000         0.500000000         0.333329999 
     0.666670023         0.333329999         0.333329999 
     0.666670023         0.500000000         0.500000000 
     0.833329977         0.333329999         0.500000000 
     0.833329977         0.500000000         0.333329999 
    -0.000000000         0.666670023         0.333329999 
    -0.000000000         0.833329977         0.500000000 
     0.166669989         0.666670023         0.500000000 
     0.166669989         0.833329977         0.333329999 
     0.333329999         0.666670023         0.333329999 
     0.333329999         0.833329977         0.500000000 
     0.500000000         0.666670023         0.500000000 
     0.500000000         0.833329977         0.333329999 
     0.666670023         0.666670023         0.333329999 
     0.666670023         0.833329977         0.500000000 
     0.833329977         0.666670023         0.500000000 
     0.833329977         0.833329977         0.333329999 
    -0.000000000        -0.000000000         0.666670023 
     0.000000000         0.166669989         0.833329977 
     0.166669989         0.000000000         0.833329977 
     0.166669989         0.166669989         0.666670023 
     0.333329999        -0.000000000         0.666670023 
     0.333329999         0.166669989         0.833329977 
     0.500000000         0.000000000         0.833329977 
     0.500000000         0.166669989         0.666670023 
     0.666670023        -0.000000000         0.666670023 
     0.666670023         0.166669989         0.833329977 
     0.833329977         0.000000000         0.833329977 
     0.833329977         0.166669989         0.666670023 
    -0.000000000         0.333329999         0.666670023 
    -0.000000000         0.500000000         0.833329977 
     0.166669989         0.333329999         0.833329977 
     0.166669989         0.500000000         0.666670023 
     0.333329999         0.333329999         0.666670023 
     0.333329999         0.500000000         0.833329977 
     0.500000000         0.333329999         0.833329977 
     0.500000000         0.500000000         0.666670023 
     0.666670023         0.333329999         0.666670023 
     0.666670023         0.500000000         0.833329977 
     0.833329977         0.333329999         0.833329977 
     0.833329977         0.500000000         0.666670023 
    -0.000000000         0.666670023         0.666670023 
     0.000000000         0.833329977         0.833329977 
     0.166669989         0.666670023         0.833329977 
     0.166669989         0.833329977         0.666670023 
     0.333329999         0.666670023         0.666670023 
     0.333329999         0.833329977         0.833329977 
     0.500000000         0.666670023         0.833329977 
     0.500000000         0.833329977         0.666670023 
     0.666670023         0.666670023         0.666670023 
     0.666670023         0.833329977         0.833329977 
     0.833329977         0.666670023         0.833329977 
     0.833329977         0.833329977         0.666670023 
